Route #1: 67 46 34 52 27 45 29 48 30 2
Route #2: 17 12 40 3 44 32 9 39 72 7 26
Route #3: 16 23 56 49 24 18 50 25 55 31 10 58
Route #4: 38 65 11 66 59 14 53 35 8
Route #5: 19 54 13 57 15 5 37 20 70 60 71 69 36 47 21
Route #6: 74 28 61 22 64 42 41 43 1 63 33 73 62
Route #7: 51 6 68 4 75
Cost 730